language Essence 1.3

letting class be
        function(1 --> 7, 2 --> 15, 3 --> 15, 4 --> 14, 5 --> 15, 6 --> 15, 7 --> 11, 8 --> 5, 9 --> 6, 10 --> 6,
                 11 --> 9, 12 --> 5, 13 --> 5, 14 --> 8, 15 --> 2, 16 --> 13, 17 --> 7, 18 --> 10, 19 --> 1, 20 --> 16,
                 21 --> 6, 22 --> 7, 23 --> 13, 24 --> 15, 25 --> 4, 26 --> 2, 27 --> 9, 28 --> 2, 29 --> 2, 30 --> 3,
                 31 --> 1, 32 --> 5, 33 --> 1, 34 --> 6, 35 --> 11, 36 --> 13, 37 --> 14, 38 --> 16, 39 --> 16,
                 40 --> 11, 41 --> 7, 42 --> 10, 43 --> 6, 44 --> 2, 45 --> 7, 46 --> 2, 47 --> 12, 48 --> 11, 49 --> 6,
                 50 --> 12, 51 --> 1, 52 --> 6, 53 --> 2, 54 --> 15, 55 --> 1, 56 --> 9, 57 --> 16, 58 --> 16, 59 --> 8,
                 60 --> 6, 61 --> 10, 62 --> 16, 63 --> 5, 64 --> 1, 65 --> 1)
letting deck_length be 173
letting deck_width be 120
letting length be
        function(1 --> 1, 2 --> 1, 3 --> 1, 4 --> 1, 5 --> 1, 6 --> 1, 7 --> 1, 8 --> 1, 9 --> 1, 10 --> 1, 11 --> 1,
                 12 --> 1, 13 --> 1, 14 --> 1, 15 --> 1, 16 --> 1, 17 --> 1, 18 --> 1, 19 --> 1, 20 --> 1, 21 --> 1,
                 22 --> 1, 23 --> 1, 24 --> 1, 25 --> 1, 26 --> 1, 27 --> 1, 28 --> 1, 29 --> 1, 30 --> 1, 31 --> 1,
                 32 --> 1, 33 --> 1, 34 --> 1, 35 --> 75, 36 --> 1, 37 --> 1, 38 --> 1, 39 --> 1, 40 --> 1, 41 --> 1,
                 42 --> 1, 43 --> 1, 44 --> 1, 45 --> 1, 46 --> 1, 47 --> 47, 48 --> 1, 49 --> 2, 50 --> 1, 51 --> 1,
                 52 --> 5, 53 --> 1, 54 --> 1, 55 --> 1, 56 --> 1, 57 --> 1, 58 --> 1, 59 --> 4, 60 --> 1, 61 --> 1,
                 62 --> 1, 63 --> 1, 64 --> 1, 65 --> 1)
letting n_classes be 16
letting n_containers be 65
letting separation be function({11, 14} --> 92, {12, 14} --> 147)
letting width be
        function(1 --> 1, 2 --> 1, 3 --> 1, 4 --> 1, 5 --> 1, 6 --> 1, 7 --> 1, 8 --> 1, 9 --> 1, 10 --> 1, 11 --> 1,
                 12 --> 1, 13 --> 1, 14 --> 1, 15 --> 1, 16 --> 1, 17 --> 1, 18 --> 1, 19 --> 1, 20 --> 1, 21 --> 1,
                 22 --> 1, 23 --> 1, 24 --> 1, 25 --> 1, 26 --> 1, 27 --> 1, 28 --> 1, 29 --> 1, 30 --> 1, 31 --> 1,
                 32 --> 1, 33 --> 1, 34 --> 1, 35 --> 86, 36 --> 1, 37 --> 1, 38 --> 1, 39 --> 1, 40 --> 1, 41 --> 1,
                 42 --> 1, 43 --> 1, 44 --> 1, 45 --> 1, 46 --> 1, 47 --> 1, 48 --> 1, 49 --> 92, 50 --> 1, 51 --> 1,
                 52 --> 21, 53 --> 1, 54 --> 1, 55 --> 1, 56 --> 1, 57 --> 1, 58 --> 1, 59 --> 1, 60 --> 1, 61 --> 1,
                 62 --> 1, 63 --> 1, 64 --> 1, 65 --> 1)
